; benchmark generated from python API
(set-info :status unknown)
(declare-fun x_days () Int)
(assert
 (>= x_days (- 36584)))
(assert
 (<= x_days 36829))
(assert
 (>= x_days 8341))
(assert
 (let (($x29 (or (and (= (mod 2000 4) 0) (and (distinct (mod 2000 100) 0) true)) (= (mod 2000 400) 0))))
(let ((?x36 (ite (= 3 2) (ite $x29 31 31) (ite (= 3 1) (ite $x29 0 0) 0))))
(let ((?x40 (ite $x29 60 59)))
(let ((?x41 (ite (= 3 3) ?x40 ?x36)))
(let ((?x46 (ite (= 3 4) (ite $x29 91 90) ?x41)))
(let ((?x52 (ite (= 3 5) (ite $x29 121 120) ?x46)))
(let ((?x58 (ite (= 3 6) (ite $x29 152 151) ?x52)))
(let ((?x64 (ite (= 3 7) (ite $x29 182 181) ?x58)))
(let ((?x70 (ite (= 3 8) (ite $x29 213 212) ?x64)))
(let ((?x76 (ite (= 3 9) (ite $x29 244 243) ?x70)))
(let ((?x82 (ite (= 3 10) (ite $x29 274 273) ?x76)))
(let ((?x88 (ite (= 3 11) (ite $x29 305 304) ?x82)))
(let ((?x16 (- (+ (* 365 (- 2000 1)) (div (- 2000 1) 4)) (div (- 2000 1) 100))))
(let ((?x95 (+ (+ ?x16 (div (- 2000 1) 400)) (ite (= 3 12) (ite $x29 335 334) ?x88))))
(let ((?x97 (+ ?x95 (- 1 1))))
(let ((?x2056 (+ x_days ?x97)))
(let ((?x801 (mod ?x2056 146097)))
(let ((?x457 (div ?x801 36524)))
(let ((?x500 (ite (<= 4 ?x457) 3 ?x457)))
(let ((?x491 (- ?x801 (* ?x500 36524))))
(let ((?x537 (mod ?x491 1461)))
(let ((?x792 (div ?x537 365)))
(let ((?x2608 (ite (<= 4 ?x792) 3 ?x792)))
(let ((?x156 (+ (+ (* (div ?x2056 146097) 400) (* ?x500 100)) (* (div ?x491 1461) 4))))
(let ((?x573 (+ (+ ?x156 ?x2608) 1)))
(let (($x743 (or (and (= (mod ?x573 4) 0) (and (distinct (mod ?x573 100) 0) true)) (= (mod ?x573 400) 0))))
(let ((?x842 (- ?x537 (* ?x2608 365))))
(let ((?x555 (ite $x743 31 31)))
(let (($x654 (>= ?x842 ?x555)))
(let ((?x282 (ite $x654 (+ (- ?x842 ?x555) 1) (+ (- ?x842 (ite $x743 0 0)) 1))))
(let ((?x590 (ite $x743 60 59)))
(let (($x1747 (>= ?x842 ?x590)))
(let ((?x177 (ite $x743 91 90)))
(let (($x2663 (>= ?x842 ?x177)))
(let ((?x316 (ite $x2663 (+ (- ?x842 ?x177) 1) (ite $x1747 (+ (- ?x842 ?x590) 1) ?x282))))
(let ((?x1198 (ite $x743 121 120)))
(let (($x357 (>= ?x842 ?x1198)))
(let ((?x649 (ite $x743 152 151)))
(let (($x811 (>= ?x842 ?x649)))
(let ((?x630 (ite $x811 (+ (- ?x842 ?x649) 1) (ite $x357 (+ (- ?x842 ?x1198) 1) ?x316))))
(let ((?x2720 (ite $x743 182 181)))
(let (($x2937 (>= ?x842 ?x2720)))
(let ((?x574 (ite $x743 213 212)))
(let (($x747 (>= ?x842 ?x574)))
(let ((?x2112 (ite $x747 (+ (- ?x842 ?x574) 1) (ite $x2937 (+ (- ?x842 ?x2720) 1) ?x630))))
(let ((?x810 (ite $x743 244 243)))
(let (($x1824 (>= ?x842 ?x810)))
(let ((?x820 (ite $x743 274 273)))
(let (($x681 (>= ?x842 ?x820)))
(let ((?x770 (ite $x681 (+ (- ?x842 ?x820) 1) (ite $x1824 (+ (- ?x842 ?x810) 1) ?x2112))))
(let ((?x207 (ite $x743 305 304)))
(let (($x221 (>= ?x842 ?x207)))
(let ((?x253 (ite $x743 335 334)))
(let (($x802 (>= ?x842 ?x253)))
(let ((?x237 (ite $x802 (+ (- ?x842 ?x253) 1) (ite $x221 (+ (- ?x842 ?x207) 1) ?x770))))
(let ((?x1194 (ite $x357 5 (ite $x2663 4 (ite $x1747 3 (ite $x654 2 1))))))
(let ((?x140 (ite $x1824 9 (ite $x747 8 (ite $x2937 7 (ite $x811 6 ?x1194))))))
(let ((?x216 (+ (ite $x802 12 (ite $x221 11 (ite $x681 10 ?x140))) (+ (* 0 12) 1))))
(let ((?x1788 (- ?x216 1)))
(let ((?x143 (+ (mod ?x1788 12) 1)))
(let ((?x366 (ite (or (= ?x143 4) (= ?x143 6) (= ?x143 9) (= ?x143 11)) 30 31)))
(let (($x138 (and (= (mod (+ ?x573 (+ 0 (div ?x1788 12))) 4) 0) (and (distinct (mod (+ ?x573 (+ 0 (div ?x1788 12))) 100) 0) true))))
(let (($x606 (or $x138 (= (mod (+ ?x573 (+ 0 (div ?x1788 12))) 400) 0))))
(let ((?x212 (ite (= ?x143 2) (ite $x606 29 28) ?x366)))
(let ((?x758 (ite (> 1 ?x237) 1 (ite (> ?x237 ?x212) ?x212 ?x237))))
(let ((?x171 (ite (> 1 ?x758) 1 (ite (> ?x758 ?x212) ?x212 ?x758))))
(let ((?x185 (ite (= 2 ?x143) (ite $x606 31 31) (ite (= 1 ?x143) (ite $x606 0 0) 0))))
(let ((?x799 (ite (= 4 ?x143) (ite $x606 91 90) (ite (= 3 ?x143) (ite $x606 60 59) ?x185))))
(let ((?x570 (ite (= 6 ?x143) (ite $x606 152 151) (ite (= 5 ?x143) (ite $x606 121 120) ?x799))))
(let ((?x515 (ite (= 8 ?x143) (ite $x606 213 212) (ite (= 7 ?x143) (ite $x606 182 181) ?x570))))
(let ((?x1511 (ite (= 10 ?x143) (ite $x606 274 273) (ite (= 9 ?x143) (ite $x606 244 243) ?x515))))
(let ((?x732 (ite (= 12 ?x143) (ite $x606 335 334) (ite (= 11 ?x143) (ite $x606 305 304) ?x1511))))
(let ((?x439 (+ (* 365 (- (+ ?x573 (+ 0 (div ?x1788 12))) 1)) (div (- (+ ?x573 (+ 0 (div ?x1788 12))) 1) 4))))
(let ((?x363 (+ (- ?x439 (div (- (+ ?x573 (+ 0 (div ?x1788 12))) 1) 100)) (div (- (+ ?x573 (+ 0 (div ?x1788 12))) 1) 400))))
(let ((?x659 (+ (+ (- (+ (+ ?x363 ?x732) (- ?x171 1)) ?x97) 0) ?x97)))
(let ((?x448 (mod ?x659 146097)))
(let ((?x308 (div ?x448 36524)))
(let ((?x261 (ite (<= 4 ?x308) 3 ?x308)))
(let ((?x3228 (- ?x448 (* ?x261 36524))))
(let ((?x435 (mod ?x3228 1461)))
(let ((?x528 (div ?x435 365)))
(let ((?x604 (ite (<= 4 ?x528) 3 ?x528)))
(let ((?x260 (+ (+ (* (div ?x659 146097) 400) (* ?x261 100)) (* (div ?x3228 1461) 4))))
(let ((?x506 (+ (+ ?x260 ?x604) 1)))
(let (($x738 (or (and (= (mod ?x506 4) 0) (and (distinct (mod ?x506 100) 0) true)) (= (mod ?x506 400) 0))))
(let ((?x1522 (- ?x435 (* ?x604 365))))
(let ((?x2912 (ite $x738 31 31)))
(let (($x727 (>= ?x1522 ?x2912)))
(let ((?x749 (ite $x727 (+ (- ?x1522 ?x2912) 1) (+ (- ?x1522 (ite $x738 0 0)) 1))))
(let ((?x331 (ite $x738 60 59)))
(let (($x2968 (>= ?x1522 ?x331)))
(let ((?x3000 (ite $x738 91 90)))
(let (($x106 (>= ?x1522 ?x3000)))
(let ((?x817 (ite $x106 (+ (- ?x1522 ?x3000) 1) (ite $x2968 (+ (- ?x1522 ?x331) 1) ?x749))))
(let ((?x2989 (ite $x738 121 120)))
(let (($x103 (>= ?x1522 ?x2989)))
(let ((?x2945 (ite $x738 152 151)))
(let (($x2963 (>= ?x1522 ?x2945)))
(let ((?x2486 (ite $x2963 (+ (- ?x1522 ?x2945) 1) (ite $x103 (+ (- ?x1522 ?x2989) 1) ?x817))))
(let ((?x620 (ite $x738 182 181)))
(let (($x134 (>= ?x1522 ?x620)))
(let ((?x464 (ite $x738 213 212)))
(let (($x122 (>= ?x1522 ?x464)))
(let ((?x115 (ite $x122 (+ (- ?x1522 ?x464) 1) (ite $x134 (+ (- ?x1522 ?x620) 1) ?x2486))))
(let ((?x404 (ite $x738 244 243)))
(let (($x336 (>= ?x1522 ?x404)))
(let ((?x1350 (ite $x738 274 273)))
(let (($x312 (>= ?x1522 ?x1350)))
(let ((?x686 (ite $x312 (+ (- ?x1522 ?x1350) 1) (ite $x336 (+ (- ?x1522 ?x404) 1) ?x115))))
(let ((?x2159 (ite $x738 305 304)))
(let (($x3518 (>= ?x1522 ?x2159)))
(let ((?x452 (ite $x738 335 334)))
(let (($x412 (>= ?x1522 ?x452)))
(let ((?x303 (ite $x412 (+ (- ?x1522 ?x452) 1) (ite $x3518 (+ (- ?x1522 ?x2159) 1) ?x686))))
(let (($x807 (= 0 0)))
(let (($x539 (= (mod (ite $x807 (+ ?x573 (+ 0 (div ?x1788 12))) ?x506) 400) 0)))
(let (($x335 (and (distinct (mod (ite $x807 (+ ?x573 (+ 0 (div ?x1788 12))) ?x506) 100) 0) true)))
(let (($x520 (= (mod (ite $x807 (+ ?x573 (+ 0 (div ?x1788 12))) ?x506) 4) 0)))
(let (($x517 (or (and $x520 $x335) $x539)))
(let ((?x1349 (ite $x103 5 (ite $x106 4 (ite $x2968 3 (ite $x727 2 1))))))
(let ((?x1049 (ite $x336 9 (ite $x122 8 (ite $x134 7 (ite $x2963 6 ?x1349))))))
(let ((?x596 (ite $x807 ?x143 (ite $x412 12 (ite $x3518 11 (ite $x312 10 ?x1049))))))
(let ((?x100 (ite (= 2 ?x596) (ite $x517 31 31) (ite (= 1 ?x596) (ite $x517 0 0) 0))))
(let ((?x813 (ite (= 4 ?x596) (ite $x517 91 90) (ite (= 3 ?x596) (ite $x517 60 59) ?x100))))
(let ((?x376 (ite (= 6 ?x596) (ite $x517 152 151) (ite (= 5 ?x596) (ite $x517 121 120) ?x813))))
(let ((?x218 (ite (= 8 ?x596) (ite $x517 213 212) (ite (= 7 ?x596) (ite $x517 182 181) ?x376))))
(let ((?x2680 (ite (= 10 ?x596) (ite $x517 274 273) (ite (= 9 ?x596) (ite $x517 244 243) ?x218))))
(let ((?x2280 (ite (= 12 ?x596) (ite $x517 335 334) (ite (= 11 ?x596) (ite $x517 305 304) ?x2680))))
(let ((?x424 (+ ?x573 (+ 0 (div ?x1788 12)))))
(let ((?x808 (ite $x807 ?x424 ?x506)))
(let ((?x466 (- ?x808 1)))
(let ((?x2396 (+ (- (+ (* 365 ?x466) (div ?x466 4)) (div ?x466 100)) (div ?x466 400))))
(let (($x301 (<= (- (+ (+ ?x2396 ?x2280) (- (ite $x807 ?x171 ?x303) 1)) ?x97) (+ x_days 31))))
(not $x301)))))))))))))))))))))))))))))))))))))))))))))))))))))))))))))))))))))))))))))))))))))))))))))))))))))))))))))))))))))))))))))))))))))))
(check-sat)
